
Gurobi 7.5.2 (linux64) logging started Sat Jul  7 17:11:00 2018

Changed value of parameter LogFile to result/ilp/simNo_6-n_100-m_40-s_4-minVAF_0.05-cov_10000-k_1-fn_0.25-fp_0.0001-na_0.15.ILP.gurobiSolverLog
   Prev: gurobi.log  Default: 
Changed value of parameter TimeLimit to 86400.0
   Prev: 1e+100  Min: 0.0  Max: 1e+100  Default: 1e+100
Optimize a model with 639293 rows, 10765 columns and 1940420 nonzeros
Variable types: 0 continuous, 10765 integer (10765 binary)
Coefficient statistics:
  Matrix range     [5e-04, 4e+00]
  Objective range  [1e+00, 2e+01]
  Bounds range     [1e+00, 1e+00]
  RHS range        [3e-01, 2e+00]
Presolve removed 131615 rows and 1007 columns (presolve time = 5s) ...
Presolve removed 132177 rows and 1007 columns (presolve time = 14s) ...
Presolve removed 188377 rows and 1569 columns (presolve time = 15s) ...
Presolve removed 188377 rows and 1569 columns
Presolve time: 19.98s
Presolved: 450916 rows, 9196 columns, 1357466 nonzeros
Variable types: 0 continuous, 9196 integer (9196 binary)
Presolved: 9196 rows, 460112 columns, 1366662 nonzeros

Presolve removed 9196 rows and 460112 columns

Root simplex log...

Iteration    Objective       Primal Inf.    Dual Inf.      Time
       0    2.0092471e+01   0.000000e+00   6.346800e+04     27s
   22775   -3.1986324e+02   0.000000e+00   1.034119e+05     30s
   42295   -3.7360832e+02   0.000000e+00   2.778337e+05     35s
   62999   -4.2647877e+02   0.000000e+00   6.950000e+02     40s
   63856   -4.2797159e+02   0.000000e+00   0.000000e+00     41s
   63856   -4.2797159e+02   0.000000e+00   0.000000e+00     42s

Root relaxation: objective -4.279716e+02, 63856 iterations, 17.03 seconds
Total elapsed time = 76.07s
Total elapsed time = 113.38s
Total elapsed time = 148.50s

    Nodes    |    Current Node    |     Objective Bounds      |     Work
 Expl Unexpl |  Obj  Depth IntInf | Incumbent    BestBd   Gap | It/Node Time

     0     0 -427.97159    0 1435          - -427.97159      -     -  157s
H    0     0                    -587.7845792 -427.97159  27.2%     -  166s
H    0     0                    -561.1859522 -427.97159  23.7%     -  167s
H    0     0                    -501.3080246 -427.97159  14.6%     -  167s
     0     0 -432.01883    0 2052 -501.30802 -432.01883  13.8%     -  330s
     0     0 -432.57028    0 2049 -501.30802 -432.57028  13.7%     -  353s
     0     0 -432.57028    0 2048 -501.30802 -432.57028  13.7%     -  356s
     0     0 -435.02775    0 2149 -501.30802 -435.02775  13.2%     -  500s
     0     0 -435.14252    0 1552 -501.30802 -435.14252  13.2%     -  527s
     0     0 -435.14252    0 1560 -501.30802 -435.14252  13.2%     -  532s
     0     0 -435.76016    0 2080 -501.30802 -435.76016  13.1%     -  587s
     0     0 -435.80238    0 2088 -501.30802 -435.80238  13.1%     -  608s
     0     0 -435.86032    0 2106 -501.30802 -435.86032  13.1%     -  614s
     0     0 -435.88123    0 2106 -501.30802 -435.88123  13.1%     -  618s
     0     0 -435.88801    0 2085 -501.30802 -435.88801  13.0%     -  622s
     0     0 -435.90346    0 2114 -501.30802 -435.90346  13.0%     -  627s
     0     0 -437.81476    0 2023 -501.30802 -437.81476  12.7%     -  831s
     0     0 -437.98718    0 2031 -501.30802 -437.98718  12.6%     -  853s
     0     0 -438.13538    0 2063 -501.30802 -438.13538  12.6%     -  873s
     0     0 -438.14973    0 2096 -501.30802 -438.14973  12.6%     -  884s
     0     0 -438.15399    0 2066 -501.30802 -438.15399  12.6%     -  889s
     0     0 -438.15501    0 2096 -501.30802 -438.15501  12.6%     -  893s
     0     0 -439.79109    0 2004 -501.30802 -439.79109  12.3%     - 1060s
H    0     0                    -491.8657021 -439.79109  10.6%     - 1083s
     0     0 -439.79749    0 2092 -491.86570 -439.79749  10.6%     - 1100s
     0     0 -439.80655    0 2083 -491.86570 -439.80655  10.6%     - 1106s
     0     0 -439.80655    0 2078 -491.86570 -439.80655  10.6%     - 1109s
     0     0 -441.11528    0 2073 -491.86570 -441.11528  10.3%     - 2387s
     0     0 -441.21668    0 2051 -491.86570 -441.21668  10.3%     - 2405s
     0     0 -441.21668    0 2050 -491.86570 -441.21668  10.3%     - 2408s
     0     0 -442.80022    0 1959 -491.86570 -442.80022  10.0%     - 2508s
     0     0 -443.09742    0 1968 -491.86570 -443.09742  9.91%     - 2563s
     0     0 -443.11769    0 2051 -491.86570 -443.11769  9.91%     - 2582s
     0     0 -443.18937    0 2041 -491.86570 -443.18937  9.90%     - 2601s
     0     0 -443.19301    0 2043 -491.86570 -443.19301  9.90%     - 2609s
     0     0 -444.20541    0 2071 -491.86570 -444.20541  9.69%     - 2790s
H    0     0                    -490.6854117 -444.20541  9.47%     - 2813s
     0     0 -444.62428    0 2137 -490.68541 -444.62428  9.39%     - 2960s
     0     0 -444.79985    0 2121 -490.68541 -444.79985  9.35%     - 2980s
     0     0 -444.83361    0 2107 -490.68541 -444.83361  9.34%     - 3030s
     0     0 -444.83361    0 2108 -490.68541 -444.83361  9.34%     - 3033s
     0     0 -445.42698    0 2029 -490.68541 -445.42698  9.22%     - 3130s
H    0     0                    -489.5051214 -445.42698  9.00%     - 3149s
     0     0 -445.43051    0 2021 -489.50512 -445.43051  9.00%     - 3155s
     0     0 -445.43167    0 2022 -489.50512 -445.43167  9.00%     - 3162s
     0     0 -445.59067    0 2061 -489.50512 -445.59067  8.97%     - 3206s
     0     0 -445.59489    0 2058 -489.50512 -445.59489  8.97%     - 3224s
     0     0 -445.59709    0 2124 -489.50512 -445.59709  8.97%     - 3238s
     0     0 -445.59709    0 2126 -489.50512 -445.59709  8.97%     - 3241s
     0     0 -446.61977    0 2016 -489.50512 -446.61977  8.76%     - 3577s
     0     0 -446.70829    0 2029 -489.50512 -446.70829  8.74%     - 3605s
     0     0 -446.70829    0 2056 -489.50512 -446.70829  8.74%     - 3613s
     0     0 -447.98045    0 2054 -489.50512 -447.98045  8.48%     - 3861s
H    0     0                    -488.3248311 -447.98045  8.26%     - 3880s
     0     0 -448.15268    0 2039 -488.32483 -448.15268  8.23%     - 3916s
     0     0 -448.15268    0 2045 -488.32483 -448.15268  8.23%     - 3920s
     0     0 -449.27741    0 2069 -488.32483 -449.27741  8.00%     - 5083s
     0     0 -449.66492    0 2057 -488.32483 -449.66492  7.92%     - 6005s
     0     0 -449.66492    0 2045 -488.32483 -449.66492  7.92%     - 6010s
     0     0 -450.71253    0 2086 -488.32483 -450.71253  7.70%     - 11839s
     0     0 -451.01979    0 2185 -488.32483 -451.01979  7.64%     - 11872s
     0     0 -451.07939    0 2188 -488.32483 -451.07939  7.63%     - 11880s
     0     0 -451.07939    0 2187 -488.32483 -451.07939  7.63%     - 11885s
     0     0 -451.36278    0 2139 -488.32483 -451.36278  7.57%     - 11931s
     0     0 -451.40901    0 1422 -488.32483 -451.40901  7.56%     - 11969s
     0     0 -451.69190    0 2182 -488.32483 -451.69190  7.50%     - 12066s
     0     0 -451.69711    0 2191 -488.32483 -451.69711  7.50%     - 12074s
     0     0 -451.69711    0 2192 -488.32483 -451.69711  7.50%     - 12077s
     0     0 -451.95091    0 2152 -488.32483 -451.95091  7.45%     - 12143s
     0     0 -452.06108    0 2187 -488.32483 -452.06108  7.43%     - 12200s
     0     0 -452.28091    0 2184 -488.32483 -452.28091  7.38%     - 12220s
     0     0 -452.31955    0 2188 -488.32483 -452.31955  7.37%     - 12227s
     0     0 -452.31955    0 2189 -488.32483 -452.31955  7.37%     - 12229s
     0     0 -452.59003    0 2182 -488.32483 -452.59003  7.32%     - 12285s
     0     0 -452.85052    0 2187 -488.32483 -452.85052  7.26%     - 12387s
     0     0 -452.95735    0 2182 -488.32483 -452.95735  7.24%     - 12396s
     0     0 -452.96904    0 2184 -488.32483 -452.96904  7.24%     - 12403s
     0     0 -452.96980    0 2187 -488.32483 -452.96980  7.24%     - 12406s
     0     0 -453.96518    0 2188 -488.32483 -453.96518  7.04%     - 12590s
     0     0 -454.16288    0 2199 -488.32483 -454.16288  7.00%     - 12656s
     0     0 -454.21969    0 2188 -488.32483 -454.21969  6.98%     - 12667s
     0     0 -454.22512    0 2193 -488.32483 -454.22512  6.98%     - 12673s
     0     0 -454.26452    0 2186 -488.32483 -454.26452  6.97%     - 12684s
     0     0 -454.29790    0 2187 -488.32483 -454.29790  6.97%     - 12692s
     0     0 -454.30532    0 2189 -488.32483 -454.30532  6.97%     - 12695s
     0     0 -454.30837    0 2189 -488.32483 -454.30837  6.97%     - 12699s
     0     0 -454.31682    0 2190 -488.32483 -454.31682  6.96%     - 12703s
     0     0 -454.32497    0 2190 -488.32483 -454.32497  6.96%     - 12708s
     0     0 -454.32497    0 2192 -488.32483 -454.32497  6.96%     - 12712s
     0     0 -455.31329    0 2164 -488.32483 -455.31329  6.76%     - 12852s
     0     0 -455.56916    0 2168 -488.32483 -455.56916  6.71%     - 12908s
     0     0 -455.56951    0 2169 -488.32483 -455.56951  6.71%     - 12915s
     0     0 -456.84657    0 2115 -488.32483 -456.84657  6.45%     - 13205s
     0     0 -456.94413    0 2130 -488.32483 -456.94413  6.43%     - 13256s
     0     0 -456.95011    0 2128 -488.32483 -456.95011  6.42%     - 13261s
     0     0 -456.95272    0 2146 -488.32483 -456.95272  6.42%     - 13271s
     0     0 -457.85042    0 2135 -488.32483 -457.85042  6.24%     - 13493s
     0     0 -458.05050    0 2135 -488.32483 -458.05050  6.20%     - 13598s
     0     0 -458.07284    0 2126 -488.32483 -458.07284  6.20%     - 13613s
     0     0 -458.07284    0 2133 -488.32483 -458.07284  6.20%     - 13615s
     0     0 -458.52095    0 2123 -488.32483 -458.52095  6.10%     - 13889s
     0     0 -458.67656    0 2150 -488.32483 -458.67656  6.07%     - 13994s
     0     0 -458.77694    0 2159 -488.32483 -458.77694  6.05%     - 14036s
     0     0 -458.80219    0 2161 -488.32483 -458.80219  6.05%     - 14043s
     0     0 -458.81348    0 2160 -488.32483 -458.81348  6.04%     - 14049s
     0     0 -458.81348    0 2162 -488.32483 -458.81348  6.04%     - 14052s
     0     0 -459.34620    0 2140 -488.32483 -459.34620  5.93%     - 14523s
     0     0 -459.61151    0 2142 -488.32483 -459.61151  5.88%     - 14790s
     0     0 -459.67097    0 2138 -488.32483 -459.67097  5.87%     - 14811s
     0     0 -459.68587    0 2170 -488.32483 -459.68587  5.86%     - 14848s
     0     0 -459.68595    0 2171 -488.32483 -459.68595  5.86%     - 14854s
     0     0 -459.84979    0 2190 -488.32483 -459.84979  5.83%     - 14937s
     0     0 -460.17000    0 2182 -488.32483 -460.17000  5.77%     - 15016s
     0     0 -460.18882    0 2165 -488.32483 -460.18882  5.76%     - 15037s
     0     0 -460.20364    0 2154 -488.32483 -460.20364  5.76%     - 15055s
     0     0 -460.20627    0 2179 -488.32483 -460.20627  5.76%     - 15063s
     0     0 -460.54911    0 2176 -488.32483 -460.54911  5.69%     - 15152s
     0     0 -460.67244    0 2175 -488.32483 -460.67244  5.66%     - 15243s
     0     0 -460.69687    0 2188 -488.32483 -460.69687  5.66%     - 15266s
     0     0 -460.72552    0 2181 -488.32483 -460.72552  5.65%     - 15276s
     0     0 -460.72672    0 2188 -488.32483 -460.72672  5.65%     - 15281s
     0     0 -461.02747    0 2154 -488.32483 -461.02747  5.59%     - 15385s
     0     0 -461.15729    0 2193 -488.32483 -461.15729  5.56%     - 15485s
     0     0 -461.21062    0 2208 -488.32483 -461.21062  5.55%     - 15504s
     0     0 -461.23153    0 2212 -488.32483 -461.23153  5.55%     - 15521s
     0     0 -461.24459    0 2196 -488.32483 -461.24459  5.55%     - 15538s
     0     0 -461.24852    0 2197 -488.32483 -461.24852  5.54%     - 15544s
     0     0 -461.25372    0 2200 -488.32483 -461.25372  5.54%     - 15550s
     0     0 -461.25513    0 2201 -488.32483 -461.25513  5.54%     - 15555s
     0     0 -461.62029    0 2217 -488.32483 -461.62029  5.47%     - 15627s
     0     0 -461.68483    0 2217 -488.32483 -461.68483  5.46%     - 15679s
     0     0 -461.70624    0 2218 -488.32483 -461.70624  5.45%     - 15691s
     0     0 -461.71328    0 2218 -488.32483 -461.71328  5.45%     - 15700s
     0     0 -461.71389    0 2224 -488.32483 -461.71389  5.45%     - 15704s
     0     0 -462.15166    0 2199 -488.32483 -462.15166  5.36%     - 15770s
     0     0 -462.26639    0 2207 -488.32483 -462.26639  5.34%     - 15822s
     0     0 -462.29544    0 2207 -488.32483 -462.29544  5.33%     - 15843s
     0     0 -462.29928    0 2206 -488.32483 -462.29928  5.33%     - 15849s
     0     0 -462.29936    0 2209 -488.32483 -462.29936  5.33%     - 15852s
     0     0 -462.97316    0 2194 -488.32483 -462.97316  5.19%     - 15949s
     0     0 -462.99781    0 2189 -488.32483 -462.99781  5.19%     - 15986s
     0     0 -463.05959    0 2191 -488.32483 -463.05959  5.17%     - 15994s
     0     0 -463.09776    0 2193 -488.32483 -463.09776  5.17%     - 16003s
     0     0 -463.09943    0 2193 -488.32483 -463.09943  5.17%     - 16007s
     0     0 -463.63342    0 2194 -488.32483 -463.63342  5.06%     - 16135s
     0     0 -463.82860    0 2206 -488.32483 -463.82860  5.02%     - 16217s
     0     0 -463.83986    0 2227 -488.32483 -463.83986  5.01%     - 16231s
     0     0 -463.84389    0 2247 -488.32483 -463.84389  5.01%     - 16238s
     0     0 -463.84706    0 2235 -488.32483 -463.84706  5.01%     - 16242s
     0     0 -463.86837    0 2238 -488.32483 -463.86837  5.01%     - 16255s
     0     0 -463.93790    0 2234 -488.32483 -463.93790  4.99%     - 16306s
     0     0 -463.95017    0 2235 -488.32483 -463.95017  4.99%     - 16314s
     0     0 -463.95030    0 2237 -488.32483 -463.95030  4.99%     - 16317s
     0     0 -464.45407    0 2222 -488.32483 -464.45407  4.89%     - 16427s
     0     0 -464.54873    0 2219 -488.32483 -464.54873  4.87%     - 16494s
     0     0 -464.56600    0 2227 -488.32483 -464.56600  4.87%     - 16503s
     0     0 -464.56670    0 2227 -488.32483 -464.56670  4.87%     - 16505s
     0     0 -464.95920    0 2215 -488.32483 -464.95920  4.78%     - 16592s
     0     0 -465.08168    0 2212 -488.32483 -465.08168  4.76%     - 16640s
     0     0 -465.10003    0 2209 -488.32483 -465.10003  4.76%     - 16668s
     0     0 -465.10115    0 2211 -488.32483 -465.10115  4.76%     - 16672s
     0     0 -465.42395    0 2179 -488.32483 -465.42395  4.69%     - 16763s
     0     0 -465.47186    0 2193 -488.32483 -465.47186  4.68%     - 16843s
     0     0 -465.47386    0 2199 -488.32483 -465.47386  4.68%     - 16849s
     0     0 -465.56179    0 2179 -488.32483 -465.56179  4.66%     - 16881s
     0     0 -465.62788    0 2195 -488.32483 -465.62788  4.65%     - 16943s
     0     0 -465.65830    0 2206 -488.32483 -465.65830  4.64%     - 16955s
     0     0 -465.67345    0 2234 -488.32483 -465.67345  4.64%     - 16963s
     0     0 -465.67499    0 2238 -488.32483 -465.67499  4.64%     - 16968s
     0     0 -466.51179    0 2168 -488.32483 -466.51179  4.47%     - 17089s
     0     0 -466.71445    0 2170 -488.32483 -466.71445  4.43%     - 17152s
     0     0 -466.73272    0 2172 -488.32483 -466.73272  4.42%     - 17163s
     0     0 -466.75374    0 2172 -488.32483 -466.75374  4.42%     - 17173s
     0     0 -466.76473    0 2170 -488.32483 -466.76473  4.42%     - 17179s
     0     0 -466.76473    0 2172 -488.32483 -466.76473  4.42%     - 17181s
     0     0 -466.81298    0 2187 -488.32483 -466.81298  4.41%     - 17201s
     0     0 -466.95330    0 2173 -488.32483 -466.95330  4.38%     - 17291s
     0     0 -466.98917    0 2166 -488.32483 -466.98917  4.37%     - 17304s
     0     0 -467.00026    0 2171 -488.32483 -467.00026  4.37%     - 17311s
     0     0 -467.01074    0 2170 -488.32483 -467.01074  4.36%     - 17318s
     0     0 -467.01847    0 2173 -488.32483 -467.01847  4.36%     - 17323s
     0     0 -467.02273    0 2173 -488.32483 -467.02273  4.36%     - 17327s
     0     0 -467.02524    0 2189 -488.32483 -467.02524  4.36%     - 17330s
     0     0 -467.42059    0 2154 -488.32483 -467.42059  4.28%     - 17403s
     0     0 -467.52912    0 2159 -488.32483 -467.52912  4.26%     - 17468s
     0     0 -467.57508    0 2188 -488.32483 -467.57508  4.25%     - 17493s
     0     0 -467.58492    0 2181 -488.32483 -467.58492  4.25%     - 17507s
     0     0 -467.58612    0 2198 -488.32483 -467.58612  4.25%     - 17513s
     0     0 -468.20796    0 2157 -488.32483 -468.20796  4.12%     - 17655s
     0     0 -468.50581    0 2155 -488.32483 -468.50581  4.06%     - 17734s
     0     0 -468.53661    0 2196 -488.32483 -468.53661  4.05%     - 17755s
     0     0 -468.53684    0 2192 -488.32483 -468.53684  4.05%     - 17761s
     0     0 -468.69882    0 2140 -488.32483 -468.69882  4.02%     - 17975s
     0     0 -468.97526    0 2144 -488.32483 -468.97526  3.96%     - 18082s
     0     0 -469.08068    0 2126 -488.32483 -469.08068  3.94%     - 18152s
     0     0 -469.09512    0 2143 -488.32483 -469.09512  3.94%     - 18171s
     0     0 -469.09512    0 2144 -488.32483 -469.09512  3.94%     - 18177s
     0     0 -469.25340    0 2112 -488.32483 -469.25340  3.91%     - 18299s
     0     0 -469.32300    0 2107 -488.32483 -469.32300  3.89%     - 18366s
     0     0 -469.42326    0 2151 -488.32483 -469.42326  3.87%     - 18421s
     0     0 -469.43789    0 2152 -488.32483 -469.43789  3.87%     - 18434s
     0     0 -469.44332    0 2145 -488.32483 -469.44332  3.87%     - 18440s
     0     0 -469.44433    0 2144 -488.32483 -469.44433  3.87%     - 18446s
     0     0 -469.49995    0 2141 -488.32483 -469.49995  3.85%     - 18487s
     0     0 -469.55604    0 2152 -488.32483 -469.55604  3.84%     - 18539s
     0     0 -469.63159    0 2143 -488.32483 -469.63159  3.83%     - 18570s
     0     0 -469.63685    0 2160 -488.32483 -469.63685  3.83%     - 18578s
     0     0 -469.63685    0 2170 -488.32483 -469.63685  3.83%     - 18581s
     0     0 -469.81908    0 2171 -488.32483 -469.81908  3.79%     - 18675s
     0     0 -469.84352    0 2161 -488.32483 -469.84352  3.78%     - 18719s
     0     0 -469.84388    0 2174 -488.32483 -469.84388  3.78%     - 18726s
     0     0 -470.14415    0 2143 -488.32483 -470.14415  3.72%     - 18964s
     0     0 -470.14415    0 2147 -488.32483 -470.14415  3.72%     - 18997s
     0     0 -470.46273    0 2119 -488.32483 -470.46273  3.66%     - 19975s
     0     0 -470.53000    0 2132 -488.32483 -470.53000  3.64%     - 20058s
     0     0 -470.55002    0 2131 -488.32483 -470.55002  3.64%     - 20077s
     0     0 -470.55418    0 2125 -488.32483 -470.55418  3.64%     - 20086s
     0     0 -470.75837    0 2108 -488.32483 -470.75837  3.60%     - 20294s
     0     0 -470.85761    0 2091 -488.32483 -470.85761  3.58%     - 20422s
     0     0 -470.86352    0 2122 -488.32483 -470.86352  3.58%     - 20438s
     0     0 -470.88107    0 2138 -488.32483 -470.88107  3.57%     - 20463s
     0     0 -470.88338    0 2149 -488.32483 -470.88338  3.57%     - 20477s
     0     0 -470.88338    0 2152 -488.32483 -470.88338  3.57%     - 20495s
     0     0 -470.88756    0 2147 -488.32483 -470.88756  3.57%     - 20559s
     0     0 -470.89564    0 2177 -488.32483 -470.89564  3.57%     - 20580s
     0     0 -470.89564    0 2017 -488.32483 -470.89564  3.57%     - 21121s
     0     2 -470.89623    0 2015 -488.32483 -470.89623  3.57%     - 21549s
     1     3 -472.17634    1 1132 -488.32483 -470.90158  3.57%  4654 21565s
     2     4 -475.10024    2 1120 -488.32483 -470.90158  3.57%  3757 21579s
     3     5 -475.44449    2 1127 -488.32483 -470.90158  3.57%  3353 21591s
     5     7 -478.41809    4 1037 -488.32483 -470.90158  3.57%  2861 21629s
     6     8 -476.50012    4 1046 -488.32483 -470.90158  3.57%  2556 21635s
     7     9 -477.53288    5  958 -488.32483 -470.90158  3.57%  2302 21643s
     8    10 -481.07375    5 1014 -488.32483 -470.90158  3.57%  2955 21706s
     9    11 -484.02447    6  928 -488.32483 -470.90158  3.57%  2711 21717s
    10    12 -483.72940    6  982 -488.32483 -470.90158  3.57%  2490 21721s
    12    12     cutoff    8      -488.32483 -470.90158  3.57%  2119 21725s
    13    13 -487.27027    8  942 -488.32483 -470.90158  3.57%  2146 21733s
    16    12     cutoff   10      -488.32483 -470.90158  3.57%  1766 21735s
    18    12 -477.48263    1  957 -488.32483 -475.11414  2.71%  3094 22010s
    20    14 -479.32512    3  852 -488.32483 -475.11414  2.71%  2869 22024s
    21    15 -479.91526    3  757 -488.32483 -475.11414  2.71%  3349 22122s
    22    16 -482.27584    4  739 -488.32483 -475.11414  2.71%  3309 22145s
    23    17 -484.63642    5  735 -488.32483 -475.11414  2.71%  3326 22166s
    24    18 -483.04384    5 1911 -488.32483 -475.11414  2.71%  3277 22189s
    25    19 -485.81671    6  686 -488.32483 -475.11414  2.71%  3160 22191s
    27    21 -486.94293    7  874 -488.32483 -475.11414  2.71%  3054 22213s
    29    23 -486.99700    9  626 -488.32483 -475.11414  2.71%  2857 22215s
    33    23 -487.58715   11  585 -488.32483 -475.11414  2.71%  2522 22221s
    36    24 -488.17729   13  558 -488.32483 -475.11414  2.71%  2331 22227s
    41    21 -477.36247    3 1091 -488.32483 -475.12601  2.70%  2201 22257s
    43    23 -479.89346    5  988 -488.32483 -475.12601  2.70%  2122 22265s
    44    24 -480.48360    5 1029 -488.32483 -475.12601  2.70%  2195 22291s
    45    25 -482.25404    6 1003 -488.32483 -475.12601  2.70%  2183 22305s
    47    27 -485.20476    7  922 -488.32483 -475.12601  2.70%  2165 22319s
    48    28 -487.86042    8  915 -488.32483 -475.12601  2.70%  2125 22326s
    49    27     cutoff    8      -488.32483 -475.12601  2.70%  2136 22334s
    50    26     cutoff    9      -488.32483 -475.12601  2.70%  2096 22335s
    54    24 -478.64111    3 1059 -488.32483 -475.44449  2.64%  2108 22416s
    56    26 -480.48360    5  967 -488.32483 -475.44449  2.64%  2061 22441s
    58    28 -486.38505    6  862 -488.32483 -475.44449  2.64%  2039 22452s
    59    29 -487.56534    7  857 -488.32483 -475.44449  2.64%  2015 22455s
    63    27 -483.13925    7  971 -488.32483 -475.44449  2.64%  1901 22471s
    64    28 -485.20476    7  926 -488.32483 -475.44449  2.64%  1878 22485s
    66    30 -487.86042    8  928 -488.32483 -475.44449  2.64%  1841 22493s
    69    29 -485.79491    8  925 -488.32483 -475.44449  2.64%  1766 22496s
    71    29 -488.15549    9  906 -488.32483 -475.44449  2.64%  1738 22501s
    75    27 -477.58205    3 1112 -488.32483 -477.36247  2.24%  1660 22508s
    76    28 -479.79510    4 1105 -488.32483 -477.36247  2.24%  1646 22515s
    77    29 -481.68356    5 1076 -488.32483 -477.36247  2.24%  1637 22523s
    79    31 -485.05723    7  614 -488.32483 -477.36247  2.24%  1602 22529s
    80    32 -483.13925    7  641 -488.32483 -477.36247  2.24%  1589 22541s
    81    33 -486.23752    8  600 -488.32483 -477.36247  2.24%  1572 22552s
    82    34 -485.94244    8  544 -488.32483 -477.36247  2.24%  1558 22555s
    85    35 -486.53259    8  542 -488.32483 -477.36247  2.24%  1516 22560s
    88    36     cutoff    9      -488.32483 -477.36247  2.24%  1473 22565s
    92    36 -487.02438    9  623 -488.32483 -477.36247  2.24%  1423 22571s
    97    33 -479.50003    4 1148 -488.32483 -477.48263  2.22%  1395 22594s
    98    34 -481.71307    5 1030 -488.32483 -477.48263  2.22%  1403 22602s
    99    35 -483.36548    6 1106 -488.32483 -477.48263  2.22%  1401 22617s
   101    37 -486.63095    8  614 -488.32483 -477.48263  2.22%  1381 22627s
   102    38 -486.23752    8  618 -488.32483 -477.48263  2.22%  1374 22631s
   105    37 -487.41781    9  612 -488.32483 -477.48263  2.22%  1342 22635s
   111    35 -479.62019    2  911 -488.32483 -477.55485  2.21%  1296 22660s
   112    36 -482.33907    3  886 -488.32483 -477.55485  2.21%  1321 22679s
   113    37 -483.72170    4  852 -488.32483 -477.55485  2.21%  1355 22700s
   114    38 -484.78396    5  857 -488.32483 -477.55485  2.21%  1360 22706s
   116    38     cutoff    7      -488.32483 -477.55485  2.21%  1342 22710s
   119    41 -487.93140    9  588 -488.32483 -477.55485  2.21%  1315 22716s
   123    37     cutoff    8      -488.32483 -477.55485  2.21%  1278 22720s
   124    38 -486.55440    6  792 -488.32483 -477.55485  2.21%  1294 22732s
   125    39 -487.73469    7  744 -488.32483 -477.55485  2.21%  1292 22735s
   129    37     cutoff    8      -488.32483 -477.55485  2.21%  1260 22740s
   132    38 -485.37411    6  408 -488.32483 -477.55485  2.21%  1244 22747s
   134    38     cutoff    8      -488.32483 -477.55485  2.21%  1233 22751s
   136    38     cutoff    9      -488.32483 -477.55485  2.21%  1218 22755s
   138    36     cutoff    7      -488.32483 -477.55485  2.21%  1213 22760s
   139    37 -485.96425    6  369 -488.32483 -477.55485  2.21%  1210 22768s
   140    36     cutoff    7      -488.32483 -477.55485  2.21%  1214 22773s
   141    37 -486.81646    7 1463 -488.32483 -477.55485  2.21%  1215 22778s
   144    36     cutoff    9      -488.32483 -477.55485  2.21%  1192 22780s
   148    36 -480.18853    6  926 -488.32483 -477.65842  2.18%  1179 22791s
   151    39 -487.27027    9  764 -488.32483 -477.65842  2.18%  1173 22801s
   154    38 -487.86042    9  788 -488.32483 -477.65842  2.18%  1172 22816s
   157    35     cutoff    8      -488.32483 -477.65842  2.18%  1157 22820s
   158    36 -481.36882    6  933 -488.32483 -477.79254  2.16%  1158 22828s
   159    37 -483.72940    7  937 -488.32483 -477.79254  2.16%  1152 22830s
   164    38 -487.27027    9  929 -488.32483 -477.79254  2.16%  1126 22837s
   167    35     cutoff    9      -488.32483 -477.79254  2.16%  1109 22840s
   168    36 -481.27046    4 1015 -488.32483 -478.41809  2.03%  1137 22880s
   170    38 -488.05713    6  689 -488.32483 -478.41809  2.03%  1129 22886s
   174    38 -488.05713    7  931 -488.32483 -478.41809  2.03%  1108 22891s
   180    36 -480.18853    5  960 -488.32483 -478.41809  2.03%  1091 22911s
   181    37 -481.95896    6  960 -488.32483 -478.41809  2.03%  1090 22915s
   182    38 -483.13925    6  890 -488.32483 -478.41809  2.03%  1096 22923s
   183    39 -482.54911    7  935 -488.32483 -478.41809  2.03%  1093 22925s
   186    40 -484.61462    8  937 -488.32483 -478.41809  2.03%  1083 22934s
   187    41 -486.08998    7  885 -488.32483 -478.41809  2.03%  1086 22941s
   188    42 -485.49984    7  813 -488.32483 -478.41809  2.03%  1085 22953s
   189    41     cutoff    8      -488.32483 -478.41809  2.03%  1084 22956s
   192    42 -487.27027    8  814 -488.32483 -478.41809  2.03%  1073 22961s
   195    41 -486.08998    8  884 -488.32483 -478.41809  2.03%  1058 22967s
   200    38     cutoff    8      -488.32483 -478.41809  2.03%  1034 22970s
   202    40 -483.43734    6 1004 -488.32483 -478.64111  1.98%  1129 23231s
   203    41 -487.27328    7  940 -488.32483 -478.64111  1.98%  1145 23268s
   204    40     cutoff    8      -488.32483 -478.64111  1.98%  1194 23385s
   205    39     cutoff    8      -488.32483 -478.64111  1.98%  1352 23869s
   206    40 -485.50285    7  998 -488.32483 -478.64111  1.98%  1511 24364s
   207    39     cutoff    8      -488.32483 -478.64111  1.98%  1599 24605s
   208    38     cutoff    8      -488.32483 -478.64111  1.98%  1723 24955s
   209    39 -483.14227    6 1016 -488.32483 -478.64111  1.98%  1827 25207s
   210    40 -484.71599    7 1010 -488.32483 -478.64111  1.98%  1908 25447s
   211    41 -486.68314    8 1022 -488.32483 -478.64111  1.98%  2089 26070s
   212    42 -487.86343    9 1025 -488.32483 -478.64111  1.98%  2097 26092s
   213    41     cutoff   10      -488.32483 -478.64111  1.98%  2092 26098s
   215    39     cutoff    9      -488.32483 -478.64111  1.98%  2250 26603s
   216    40 -487.07657    8 1038 -488.32483 -478.64111  1.98%  2368 27119s
   217    39     cutoff    9      -488.32483 -478.64111  1.98%  2385 27220s
   218    38     cutoff    9      -488.32483 -478.64111  1.98%  2378 27231s
   219    39 -482.84418    4 1098 -488.32483 -478.71317  1.97%  2517 27989s
   220    40 -485.05723    5 1126 -488.32483 -478.71317  1.97%  4997 51909s
   221    41 -486.53259    5 1021 -488.32483 -478.71317  1.97%  7669 76051s
   222    42 -486.82766    6 1098 -488.32483 -478.71317  1.97%  7834 77267s
   223    43 -487.31945    6 1015 -488.32483 -478.71317  1.97%  7812 77297s

Cutting planes:
  MIR: 2
  Zero half: 432

Explored 224 nodes (2783747 simplex iterations) in 86400.19 seconds
Thread count was 1 (of 80 available processors)

Solution count 7: -488.325 -489.505 -490.685 ... -587.785

Time limit reached
Best objective -4.883248311076e+02, best bound -4.787131660873e+02, gap 1.9683%
